c Original Bench File <E:\Doutorado\elmaia_github\cnf\itc\itc99\b01\b01_opt.bench>
c 
c Map <original_signal> <mapped_signal>
c Map LINE1 1
c Map LINE2 2
c Map OUTP_REG 3
c Map OVERFLW_REG 4
c Map STATO_REG_2_ 5
c Map U82 6
c Map STATO_REG_1_ 7
c Map U74 8
c Map STATO_REG_0_ 9
c Map U73 10
c Map U83 11
c Map U72 12
c Map U110 13
c Map U108 14
c Map U81 15
c Map U71 16
c Map U77 17
c Map U76 18
c Map U99 19
c Map U98 20
c Map U104 21
c Map U103 22
c Map U95 23
c Map U94 24
c Map U96 25
c Map U75 26
c Map U78 27
c Map U79 28
c Map U80 29
c Map U102 30
c Map U101 31
c Map U109 32
c Map U84 33
c Map U85 34
c Map U86 35
c Map U87 36
c Map U88 37
c Map U89 38
c Map U90 39
c Map U91 40
c Map U92 41
c Map U93 42
c Map U97 43
c Map U106 44
c Map U105 45
c Map U100 46
c Map U107 47
c 
c I/O Map <original_signal> <mapped_signal>
c $i 1 i_0
c $i 2 i_1
c $o 3 o_0
c $o 4 o_1
c 
p cnf 47 120
14 13 0
15 13 0
-14 -15 -13 0
-17 16 0
-1 16 0
17 1 -16 0
7 -12 0
18 -12 0
9 -12 0
-7 -18 -9 12 0
19 10 0
20 10 0
21 10 0
22 10 0
-19 -20 -21 -22 -10 0
23 8 0
24 8 0
25 8 0
-23 -24 -25 -8 0
-2 26 0
-1 26 0
2 1 -26 0
5 18 0
-5 -18 0
2 17 0
-2 -17 0
7 27 0
-7 -27 0
9 28 0
-9 -28 0
7 29 0
28 29 0
-7 -28 -29 0
5 15 0
29 15 0
-5 -29 -15 0
30 6 0
31 6 0
-30 -31 -6 0
13 11 0
32 11 0
-13 -32 -11 0
1 33 0
2 33 0
-1 -2 -33 0
26 34 0
-26 -34 0
34 35 0
28 35 0
-34 -28 -35 0
29 36 0
-29 -36 0
33 37 0
-33 -37 0
29 38 0
33 38 0
-29 -33 -38 0
5 39 0
34 39 0
-5 -34 -39 0
9 40 0
33 40 0
-9 -33 -40 0
40 41 0
39 41 0
-40 -39 -41 0
5 42 0
33 42 0
-5 -33 -42 0
5 24 0
9 24 0
26 24 0
-5 -9 -26 -24 0
36 23 0
42 23 0
-36 -42 -23 0
41 25 0
27 25 0
-41 -27 -25 0
15 43 0
-15 -43 0
18 20 0
27 20 0
44 20 0
45 20 0
-18 -27 -44 -45 -20 0
43 19 0
26 19 0
-43 -26 -19 0
33 46 0
26 46 0
-33 -26 -46 0
38 31 0
18 31 0
-38 -18 -31 0
35 30 0
27 30 0
5 30 0
-35 -27 -5 -30 0
12 22 0
33 22 0
-12 -33 -22 0
37 21 0
36 21 0
-37 -36 -21 0
9 45 0
33 45 0
-9 -33 -45 0
37 44 0
28 44 0
-37 -28 -44 0
1 47 0
17 47 0
-1 -17 -47 0
16 14 0
47 14 0
-16 -47 -14 0
43 32 0
46 32 0
-43 -46 -32 0
